1577827
26,66,11,6,60,23,49,19,54,13,1,12,32,56,40,5,29,25,30,41,64,67,7,34,55,46,43,38,21,3,42,61,24,47,4,20,65,48,63,16,2,45,27,17,9,58,15,8,68,35,51,39,62,37,53,36,59,28,50,44,10,18,57,33,52,14,22,31